#file dei dati

#set I := 1 2 3 4 5 6; #risorse : 
#set J := 1 2 3 4 5 6; #domande :

#param C :=
#1  1
#2  1
#3  1
#4  1
#5  1
#6  1
#; #costi

#param D :=
#1  1
#2  1
#3  1
#4  1
#5  1
#6  1
#; #q.ta richieste

#param A : 1  2  3  4  5  6 :=
#1         1  1  0  0  0  0
#2         1  1  0  0  0  1
#3         0  0  1  1  0  0
#4         0  0  1  1  1  0
#5         0  0  0  1  1  1
#6         0  1  0  1  1  1
#; #coperture unitarie

set I := 1 2 3 4 5 6 ;

param T:=15;
param A:=  1  2  3  4  5 6
1          5  10 20 30 30 20
2          10 5  25 35 20 10 
3          20 25  5 15 30 20
4          30 35 15  5 15 25
5          30 20 30 15  5 14
6          20 10 20 25 14  5
;
